Set parameter TokenServer to value "hpc-licenses.hpcc.usc.edu"
Set parameter TimeLimit to value 3600
Gurobi Optimizer version 9.5.1 build v9.5.1rc2 (linux64)
Thread count: 20 physical cores, 20 logical processors, using up to 20 threads
Optimize a model with 6007 rows, 4529 columns and 24534 nonzeros
Model fingerprint: 0x71ca4eb4
Variable types: 4506 continuous, 23 integer (23 binary)
Coefficient statistics:
  Matrix range     [1e+00, 1e+00]
  Objective range  [6e-03, 1e+00]
  Bounds range     [1e+00, 1e+00]
  RHS range        [1e+00, 6e+01]
Presolve removed 1520 rows and 1515 columns
Presolve time: 0.08s
Presolved: 4487 rows, 3014 columns, 21975 nonzeros
Variable types: 2994 continuous, 20 integer (20 binary)
Found heuristic solution: objective 279.4341235

Root relaxation: objective 2.855427e+02, 2565 iterations, 0.10 seconds (0.12 work units)

    Nodes    |    Current Node    |     Objective Bounds      |     Work
 Expl Unexpl |  Obj  Depth IntInf | Incumbent    BestBd   Gap | It/Node Time

     0     0  285.54272    0    4  279.43412  285.54272  2.19%     -    0s
     0     0  285.44160    0    2  279.43412  285.44160  2.15%     -    0s
H    0     0                     284.6963798  285.44160  0.26%     -    0s
     0     0  285.43593    0    5  284.69638  285.43593  0.26%     -    0s
     0     0  285.43593    0    4  284.69638  285.43593  0.26%     -    0s
     0     0  285.16369    0    5  284.69638  285.16369  0.16%     -    1s
     0     0  285.16369    0    5  284.69638  285.16369  0.16%     -    1s

Cutting planes:
  Gomory: 4
  MIR: 421
  Flow cover: 2
  RLT: 7

Explored 1 nodes (4567 simplex iterations) in 1.60 seconds (0.67 work units)
Thread count was 20 (of 20 available processors)

Solution count 2: 284.696 279.434 

Optimal solution found (tolerance 1.00e-04)
Best objective 2.846963798072e+02, best bound 2.846963798072e+02, gap 0.0000%



#########node  1
V1.9
#########node  2
0.0,1.0
#########node  3
1.0,0.0


Total Solving Time 1.9961280822753906
obj value 284.69637980724593
Policy Regret train (Sum) 6.1720858620906105
Best Treatment Found train (%) 66.60000000000001
treatment classification acc train (%) 46.2
Policy Regret test (Sum) 62.03435671197572
Best Treatment Found test (%) 75.61
treatment classification acc test (%) 50.33
